
  32    1
  10

   0   0   5 2 3 4 5 6 
   8   1   4 12 11 10 8 
   8   7   2 9 7 
   8   6   2 9 7 
   8   7   2 10 8 
   8   6   2 10 8 
   8   4   3 15 13 10 
   4  10   4 20 15 14 13 
  10   8   4 20 19 16 15 
   8   7   3 20 17 14 
   5   6   3 20 17 14 
   5   9   2 17 13 
   3   4   2 19 16 
   9   6   3 23 19 18 
   9   5   2 18 17 
   7   8   2 23 18 
   9   9   4 25 24 23 22 
  10   4   3 24 22 21 
   9  10   2 24 21 
   4   3   3 27 24 23 
   5   4   4 31 28 26 25 
   1   9   3 30 27 26 
   4   8   2 28 26 
  10   6   2 31 26 
   2   1   2 30 27 
   7   9   1 29 
   8   6   1 29 
   1   2   1 30 
   5   5   1 32
   3   5   1 32
   5   5   1 32
   0   0   0 
